proyfinal/src/viki/013/experimentInOfficeAgust.take6.output/93f05197-ace6-4eac-bf7a-88c074c4df69.als.out
Reading from standard input... Use '--help' for help.
============================[ Problem Statistics ]=============================
|                                                                             |
|  Number of variables:         87638                                         |
|  Number of clauses:          161767                                         |
|  Parse time:                   0.04 s                                       |
|                                                                             |
============================[ Search Statistics ]==============================
| Conflicts |          ORIGINAL         |          LEARNT          | Progress |
|           |    Vars  Clauses Literals |    Limit  Clauses Lit/Cl |          |
===============================================================================
|       100 |   63854   110438   276076 |    40493      100     59 | 27.139 % |
|       250 |   63799   110405   275992 |    44543      245     57 | 27.202 % |
|       475 |   63799   110405   275992 |    48997      470     76 | 27.202 % |
|       812 |   63799   110230   275552 |    53897      795     73 | 27.202 % |
|      1318 |   63799   110230   275552 |    59287     1301     86 | 27.202 % |
|      2077 |   51774    75306   189508 |    65215     2037     76 | 40.923 % |
|      3216 |   51617    74690   187945 |    71737     3142    103 | 41.102 % |
|      4924 |   51321    73690   185504 |    78911     4822     93 | 41.440 % |
|      7486 |   50932    72170   181845 |    86802     5970     74 | 41.884 % |
|     11330 |   49720    67920   171522 |    95482     8874     66 | 43.267 % |
|     17096 |   49432    66099   167234 |   105030    12145     56 | 43.595 % |
===============================================================================
restarts              : 63
conflicts             : 17638          (7152 /sec)
decisions             : 63596          (0.00 % random) (25789 /sec)
propagations          : 25998056       (10542362 /sec)
conflict literals     : 1082651        (42.68 % deleted)
Memory used           : 42.95 MB
CPU time              : 2.46606 s

UNSATISFIABLE
